Test: battleship-15-29-sat.cnf
Options: -no-inverting-opt -activity-nl-freq=1
WARNING: for repeatability, setting FPU to use double precision
============================[ Problem Statistics ]=============================
|                                                                             |
|  Number of symmetries:           22                                         |
|  Number of invertingSyms:         0                                         |
|  Number of variables:           435                                         |
|  Number of clauses:            3270                                         |
|  Parse time:                   0.00 s                                       |
|                                                                             |
============================[ Search Statistics ]==============================
| Conflicts |          ORIGINAL         |          LEARNT          | Progress |
|           |    Vars  Clauses Literals |    Limit  Clauses Lit/Cl |          |
===============================================================================
|       100 |     435     3270    12615 |     1199      103    153 |  0.001 % |
|       250 |     435     3270    12615 |     1318      273    129 |  0.001 % |
|       475 |     435     3270    12615 |     1450      561    122 |  0.001 % |
|       812 |     435     3270    12615 |     1595      982    123 |  0.001 % |
|      1318 |     435     3270    12615 |     1755      811    138 |  0.001 % |
|      2077 |     435     3270    12615 |     1931     1783    131 |  0.001 % |
|      3216 |     435     3270    12615 |     2124     2184    144 |  0.001 % |
|      4924 |     435     3270    12615 |     2336     1203    177 |  0.001 % |
|      7486 |     435     3270    12615 |     2570     1974    175 |  0.001 % |
|     11330 |     435     3270    12615 |     2827     1534    178 |  0.001 % |
|     17096 |     435     3270    12615 |     3109     3066    190 |  0.001 % |
|     25745 |     435     3270    12615 |     3420     3018    194 |  0.001 % |
|     38719 |     435     3270    12615 |     3762     2022    182 |  0.001 % |
|     58180 |     435     3270    12615 |     4139     3874    180 |  0.001 % |
|     87372 |     435     3270    12615 |     4553     3517    189 |  0.001 % |
|    131161 |     435     3270    12615 |     5008     3854    150 |  0.001 % |
|    196845 |     435     3270    12615 |     5509     3442    172 |  0.001 % |
|    295371 |     435     3270    12615 |     6060     3953    183 |  0.001 % |
|    443160 |     435     3270    12615 |     6666     5283    181 |  0.001 % |
|    664843 |     435     3270    12615 |     7332     3726    188 |  0.001 % |
|    997368 |     435     3270    12615 |     8066     6667    199 |  0.001 % |
|   1496156 |     435     3270    12615 |     8872     6194    157 |  0.001 % |
|   2244338 |     435     3270    12615 |     9760     8831    173 |  0.001 % |
|   3366612 |     435     3270    12615 |    10736     5917    179 |  0.001 % |
|   5050023 |     435     3270    12615 |    11809     8274    188 |  0.001 % |
===============================================================================
restarts              : 8191
conflicts             : 5220537        (12516 /sec)
symconflicts          : 380407         (912 /sec)
decisions             : 10821621       (0.00 % random) (25944 /sec)
propagations          : 121875346      (292181 /sec)
sympropagations       : 1558885        (3737 /sec)
conflict literals     : 992119027      (4.64 % deleted)
literals     : 992119027      (4.64 % deleted)

HEURISTIC USAGES
random                : 0           
activity w/ lookahead : 0           
activity no lookahead : 10821620    
original sp           : 0           
sym count             : 0           

Memory used           : 43.00 MB
CPU time              : 417.122 s

SATISFIABLE
